NAME : Problem-3-10-B
TYPE : HVRP
DIMENSION : 11
EDGE_WEIGHT_TYPE : EUC_2D

NODE_COORD_SECTION
1 30 40
4 52 64
6 40 30
8 17 63
11 51 21
13 31 32
15 12 42
17 52 41
18 27 23
20 13 13
21 57 58

DEMAND_SECTION
1 0
4 16
6 21
8 19
11 5
13 29
15 21
17 15
18 3
20 9
21 28

VEHICLE_TYPES
# id capacity fixed_cost var_cost
A 20 20 1
B 30 35 1 
C 40 50 1
D 70 120 1
E 120 225 1 
END_VEHICLE_TYPES

DEPOT_SECTION
1
-1
EOF
